#p MP2/aug-cc-pVTZ 6D 10F scf=tight

h2

0  1
H   -0.370424 0.0  0.0
H    0.370424 0.0  0.0

