#p HF/STO-3G scf=tight

h2

0  1
H   -0.3704240742   0.000   0.000
H    0.3704240742   0.000   0.000

