#p PBEPBE/cc-pVDZ 6D 10F  scf=tight

li

0  2
li

