He BCC 2x2x2 supercell (8 atoms)
4.0
 -1.000   1.000   1.000
  1.000  -1.000   1.000
  1.000   1.000  -1.000
He
8
Direct
0.000000 0.000000 0.000000
0.500000 0.000000 0.000000
0.500000 0.500000 0.000000
0.000000 0.500000 0.000000
0.000000 0.000000 0.500000
0.500000 0.000000 0.500000
0.500000 0.500000 0.500000
0.000000 0.500000 0.500000
