He cubic supercell (16 atoms)
4.0
  2.000   0.000   0.000
  0.000   2.000   0.000
  0.000   0.000   2.000
He
16
Direct
0.000000 0.000000 0.000000
0.500000 0.000000 0.000000
0.000000 0.500000 0.000000
0.000000 0.000000 0.500000
0.500000 0.500000 0.000000
0.500000 0.000000 0.500000
0.000000 0.500000 0.500000
0.500000 0.500000 0.500000
0.250000 0.250000 0.250000
0.750000 0.250000 0.250000
0.250000 0.750000 0.250000
0.250000 0.250000 0.750000
0.750000 0.750000 0.250000
0.750000 0.250000 0.750000
0.250000 0.750000 0.750000
0.750000 0.750000 0.750000
