Diamond conventional cell (8 atoms)  a=3.567
1.0
3.567000 0.000000 0.000000
0.000000 3.567000 0.000000
0.000000 0.000000 3.567000
C
8
Direct
  0.000000  0.000000  0.000000
  0.000000  0.500000  0.500000
  0.500000  0.000000  0.500000
  0.500000  0.500000  0.000000
  0.250000  0.250000  0.250000
  0.250000  0.750000  0.750000
  0.750000  0.250000  0.750000
  0.750000  0.750000  0.250000

