He BCC 2x2x2 supercell (16 atoms)
1.0
  8.484   0.000   0.000
  0.000   8.484   0.000
  0.000   0.000   8.484
He
16
Direct
 0.00   0.00   0.00
 0.25   0.25   0.25
 0.50   0.00   0.00
 0.75   0.25   0.25
 0.00   0.50   0.00
 0.25   0.75   0.25
 0.00   0.00   0.50
 0.25   0.25   0.75
 0.50   0.50   0.00
 0.75   0.75   0.25
 0.50   0.00   0.50
 0.75   0.25   0.75
 0.00   0.50   0.50
 0.25   0.75   0.75
 0.50   0.50   0.50
 0.75   0.75   0.75
