#p CAM-B3LYP/cc-pVDZ  6D 10F  scf=tight 

He

0  1
He    

